NAME: tsp30-24
TYPE: TSP
DIMENSION: 30
EDGE_WEIGHT_TYPE: EUC_2D
NODE_COORD_SECTION
0 66 3
1 1 89
2 71 8
3 52 61
4 42 98
5 9 42
6 31 13
7 29 5
8 74 68
9 34 71
10 55 20
11 49 9
12 35 60
13 90 30
14 21 46
15 72 53
16 49 2
17 97 33
18 5 62
19 19 16
20 89 15
21 47 25
22 19 82
23 26 41
24 25 24
25 75 82
26 43 64
27 29 30
28 28 36
29 81 94
EOF